7
2147483647 6 86 100 23 52 99 
6 2147483647 39 64 60 51 67 
86 39 2147483647 10 96 80 66 
100 64 10 2147483647 21 75 71 
23 60 96 21 2147483647 7 93 
52 51 80 75 7 2147483647 98 
99 67 66 71 93 98 2147483647 
